SAT
95 -68 58 13 -31 -8 82 -74 17 1 39 59 78 -46 55 -7 -99 -19 -22 28 85 35 14 -16 94 -76 -37 -93 12 21 -33 2 57 -73 -88 -65 -27 54 3 -11 20 4 -79 -60 89 -96 -70 -49 -34 -48 -71 100 -36 -52 -92 80 -26 -25 -45 -77 43 6 -91 67 53 47 -38 -63 -23 69 10 -83 72 -87 75 29 -32 -18 15 -44 62 56 -61 98 41 5 86 90 -84 24 -42 -66 -50 -30 -9 -40 81 -51 -64 -97 0
